
1050.0
810.0
630.0
630.0
630.0
630.0
630.0
630.0
780.0
630.0
630.0
630.0
630.0
630.0
630.0
630.0
630.0
810.0
750.0
630.0
630.0
630.0
810.0
630.0
630.0
630.0
1080.0
840.0
630.0
930.0
630.0
630.0
780.0
630.0
630.0
750.0
630.0
630.0
960.0
630.0